c This is QMaxSAT 2017 based on 14.07
c This is Glucose 3.0
c This is MiniSat 2.2.0
c WARNING: for repeatability, setting FPU to use double precision
c card = mrwto, comp = 0, pmodel = 0, narr = 2, mct = 14, verb = 0
cr firstCPXsol 0 0 0
c top = 80229
c |  Number of variables:    2420                                             |
c |  Number of clauses:      147762                                           |
c |  Weight of hard clauses: 80229                                            |
c |  Number of soft clauses: 364                                              |
c |  Number of unit soft clauses: 364                                         |
c |  Maximum Cardinality (by unit): 160456       (160456      )               |
c last restart ## conflicts  :  0 197 
o 2235 | cpuTime 0.018064 s
c Sum of weights = 80228
c A number of soft clauses remained = 182
c MRWTO encoding for Pseudo-Boolean Constraints
c sizeMax=2235
c No.0 Divisor=14	generated by pow1
c No.1 Divisor=14	generated by pow1
c No.2 Divisor=14	generated by pow1
c p0= 14	p1= 14	p2= 14	
c number of digits = 4
c linkingVar[0].size = 14, linkingVar[1].size = 14, linkingVar[2].size = 12, linkingVar[3].size = 1, 
c Pseudo-Boolean Constraints: 4861 variables and 52929 clauses
c Sum of weights = 80228
c A number of soft clauses remained = 182
c MRWTO encoding for Pseudo-Boolean Constraints
c sizeMax=2235
c No.0 Divisor=14	generated by pow1
c No.1 Divisor=14	generated by pow1
c No.2 Divisor=14	generated by pow1
c p0= 14	p1= 14	p2= 14	
c number of digits = 4
c linkingVar[0].size = 14, linkingVar[1].size = 14, linkingVar[2].size = 12, linkingVar[3].size = 1, 
c Pseudo-Boolean Constraints: 4861 variables and 52929 clauses
c last restart ## conflicts  :  468 510 
o 2218 | cpuTime 1.12415 s
c last restart ## conflicts  :  529 506 
o 2201 | cpuTime 1.638 s
c last restart ## conflicts  :  315 502 
o 2195 | cpuTime 2.40582 s
c last restart ## conflicts  :  261 615 
o 2191 | cpuTime 2.45569 s
c last restart ## conflicts  :  139 904 
o 2128 | cpuTime 2.48816 s
c last restart ## conflicts  :  15 569 
o 2086 | cpuTime 2.98811 s
c last restart ## conflicts  :  31 625 
o 2042 | cpuTime 8.07789 s
c last restart ## conflicts  :  1002 545 
o 2038 | cpuTime 66.2244 s
s OPTIMUM FOUND
cr positiVarArr: [ | 10@1(1->10) | 29@1(3->1) | 45@1(4->3) | 123@1(9->11) | 135@1(10->9) | 144@1(11->4) | 204@2(1->8) | 211@2(2->1) | 258@2(5->6) | 278@2(6->12) | 285@2(7->5) | 307@2(8->13) | 364@2(12->14) | 371@2(13->7) | 380@2(14->2) | ]
cr the 1-th chain: [ 1->10->9->11->4->3->1 ] (#non-depot=5) {#cumul.=6}
cr the 2-th chain: [ 1->8->13->7->5->6->12->14->2->1 ] (#non-depot=8) {#cumul.=14}
c Latest Answer = 0 by 9 loops
c restarts              : 7953
c conflicts             : 1695991        (7698 /sec)
c decisions             : 2866708        (0.00 % random) (13011 /sec)
c propagations          : 772160210      (3504688 /sec)
c conflict literals     : 143599631      (46.02 % deleted)
c Memory used           : 141.00 MB
c CPU time              : 220.322 s
